186374.76,46.8,58.04
198120.87,44.03,54.6
169956.7,51.32,63.64
195431.14,44.63,55.35
193084.84,45.18,56.02
160430.96,54.37,67.42
174274.19,50.05,62.07
194821.69,44.77,55.52
187209.41,46.59,57.78
184089.93,47.38,58.76
182781.59,47.72,59.18
176161.51,49.52,61.4
185073.69,47.13,58.45
182290.62,47.85,59.34
182424.17,47.82,59.3
174685.64,49.93,61.92
191310.5,45.59,56.54
176301.36,49.48,61.35
187561.77,46.51,57.67
164541.41,53.01,65.74
